NAME : Unnamed.597.tour
COMMENT : Length = 597
COMMENT : Found by LKH [Keld Helsgaun] Sat Oct 04 21:50:01 2014
TYPE : TOUR
DIMENSION : 32
TOUR_SECTION
1
4
9
5
6
14
22
15
13
23
19
17
16
20
18
25
30
24
12
32
3
7
8
2
31
29
27
28
26
21
10
11
-1
EOF
